# Objective value = 1.7982307692307691e+03
w_0_NP 0
y_1_NP_GP 0
w_1_NP 0
w_1_GP 0
y_2_NP_GP 0
w_2_NP 1
w_2_GP 0
y_3_NP_GP 0
y_3_NP_BZ 0
y_3_GP_BZ 0
w_3_NP 1
w_3_GP 0
w_3_BZ 0
y_4_NP_GP 0
y_4_NP_BZ 0
y_4_NP_CO 0
y_4_GP_BZ 0
y_4_GP_CO 0
y_4_BZ_CO 0
w_4_NP 0
w_4_GP 0
w_4_BZ 0
w_4_CO 0
y_5_NP_GP 0
y_5_NP_BZ 0
y_5_NP_CO 0
y_5_GP_BZ 0
y_5_GP_CO 0
y_5_BZ_CO 0
w_5_NP 0
w_5_GP 0
w_5_BZ 0
w_5_CO 0
y_6_NP_GP 0
y_6_NP_BZ 0
y_6_NP_CO 0
y_6_GP_BZ 0
y_6_GP_CO 0
y_6_BZ_CO 0
w_6_NP 0
w_6_GP 0
w_6_BZ 0
w_6_CO 0
y_7_NP_GP 0
y_7_NP_BZ 0
y_7_NP_CO 0
y_7_GP_BZ 0
y_7_GP_CO 0
y_7_BZ_CO 0
w_7_NP 0
w_7_GP 0
w_7_BZ 0
w_7_CO 0
y_8_NP_GP 0
y_8_NP_BZ 0
y_8_NP_CO 0
y_8_GP_BZ 0
y_8_GP_CO 0
y_8_BZ_CO 0
w_8_NP 0
w_8_GP 0
w_8_BZ 0
w_8_CO 0
y_9_NP_GP 0
y_9_NP_BZ 0
y_9_NP_CO 0
y_9_GP_BZ 0
y_9_GP_CO 0
y_9_BZ_CO 1
w_9_NP 0
w_9_GP 0
w_9_BZ 1
w_9_CO 1
y_10_NP_GP 0
y_10_NP_BZ 0
y_10_NP_CO 0
y_10_GP_BZ 0
y_10_GP_CO 0
y_10_BZ_CO 0
w_10_NP 0
w_10_GP 0
w_10_BZ 0
w_10_CO 0
y_11_NP_GP 0
y_11_NP_BZ 0
y_11_NP_CO 0
y_11_GP_BZ 0
y_11_GP_CO 0
y_11_BZ_CO 0
w_11_NP 0
w_11_GP 0
w_11_BZ 0
w_11_CO 0
y_12_NP_GP 0
y_12_NP_BZ 1
y_12_NP_CO 0
y_12_GP_BZ 0
y_12_GP_CO 0
y_12_BZ_CO 0
w_12_NP 1
w_12_GP 0
w_12_BZ 1
w_12_CO 0
y_13_NP_GP 0
y_13_NP_BZ 0
y_13_NP_CO 0
y_13_GP_BZ 0
y_13_GP_CO 0
y_13_BZ_CO 0
w_13_NP 0
w_13_GP 0
w_13_BZ 0
w_13_CO 0
y_14_NP_GP 1
y_14_NP_BZ 0
y_14_NP_CO 1
y_14_GP_BZ 0
y_14_GP_CO 0
y_14_BZ_CO 0
w_14_NP 3
w_14_GP 0
w_14_BZ 1
w_14_CO 0
y_15_NP_GP 0
y_15_NP_BZ 0
y_15_NP_CO 0
y_15_NP_TM 0
y_15_GP_BZ 0
y_15_GP_CO 0
y_15_GP_TM 0
y_15_BZ_CO 0
y_15_BZ_TM 0
y_15_CO_TM 0
w_15_NP 0
w_15_GP 0
w_15_BZ 1
w_15_CO 0
w_15_TM 0
y_16_NP_GP 0
y_16_NP_BZ 0
y_16_NP_CO 0
y_16_GP_BZ 0
y_16_GP_CO 0
y_16_BZ_CO 0
w_16_NP 0
w_16_GP 0
w_16_BZ 1
w_16_CO 0
y_17_NP_GP 0
y_17_NP_BZ 0
y_17_NP_CO 0
y_17_GP_BZ 0
y_17_GP_CO 0
y_17_BZ_CO 0
w_17_NP 0
w_17_GP 0
w_17_BZ 0
w_17_CO 0
y_18_NP_GP 0
y_18_NP_BZ 0
y_18_NP_CO 0
y_18_GP_BZ 0
y_18_GP_CO 0
y_18_BZ_CO 0
w_18_NP 0
w_18_GP 0
w_18_BZ 0
w_18_CO 0
y_19_NP_GP 0
y_19_NP_BZ 0
y_19_GP_BZ 0
w_19_NP 0
w_19_GP 0
w_19_BZ 1
y_20_NP_GP 0
y_20_NP_BZ 0
y_20_GP_BZ 0
w_20_NP 0
w_20_GP 0
w_20_BZ 0
y_21_NP_GP 0
y_21_NP_BZ 0
y_21_GP_BZ 0
w_21_NP 0
w_21_GP 0
w_21_BZ 0
y_22_NP_GP 0
y_22_NP_BZ 0
y_22_GP_BZ 0
w_22_NP 0
w_22_GP 0
w_22_BZ 0
y_23_NP_GP 0
y_23_NP_BZ 0
y_23_GP_BZ 0
w_23_NP 0
w_23_GP 0
w_23_BZ 0
y_24_NP_GP 0
y_24_NP_BZ 0
y_24_GP_BZ 0
w_24_NP 0
w_24_GP 0
w_24_BZ 1
y_25_NP_GP 0
y_25_NP_BZ 0
y_25_NP_AZ 0
y_25_GP_BZ 0
y_25_GP_AZ 0
y_25_BZ_AZ 0
w_25_NP 0
w_25_GP 0
w_25_BZ 0
w_25_AZ 0
y_26_NP_GP 0
y_26_NP_BZ 0
y_26_NP_AZ 0
y_26_GP_BZ 0
y_26_GP_AZ 0
y_26_BZ_AZ 0
w_26_NP 1
w_26_GP 0
w_26_BZ 0
w_26_AZ 0
y_27_NP_GP 0
y_27_NP_BZ 0
y_27_NP_AZ 0
y_27_NP_LL 0
y_27_GP_BZ 0
y_27_GP_AZ 1
y_27_GP_LL 0
y_27_BZ_AZ 0
y_27_BZ_LL 0
y_27_AZ_LL 0
w_27_NP 0
w_27_GP 1
w_27_BZ 0
w_27_AZ 1
w_27_LL 0
y_28_NP_GP 0
y_28_NP_BZ 0
y_28_NP_AZ 0
y_28_NP_LL 0
y_28_GP_BZ 0
y_28_GP_AZ 0
y_28_GP_LL 0
y_28_BZ_AZ 0
y_28_BZ_LL 0
y_28_AZ_LL 0
w_28_NP 0
w_28_GP 0
w_28_BZ 0
w_28_AZ 0
w_28_LL 0
y_29_NP_GP 0
y_29_NP_BZ 0
y_29_NP_AZ 0
y_29_NP_LL 0
y_29_GP_BZ 0
y_29_GP_AZ 0
y_29_GP_LL 0
y_29_BZ_AZ 0
y_29_BZ_LL 0
y_29_AZ_LL 0
w_29_NP 0
w_29_GP 0
w_29_BZ 0
w_29_AZ 0
w_29_LL 0
y_30_NP_GP 0
y_30_NP_BZ 0
y_30_NP_AZ 0
y_30_NP_LL 0
y_30_GP_BZ 0
y_30_GP_AZ 0
y_30_GP_LL 0
y_30_BZ_AZ 0
y_30_BZ_LL 0
y_30_AZ_LL 0
w_30_NP 0
w_30_GP 0
w_30_BZ 0
w_30_AZ 0
w_30_LL 0
y_31_NP_GP 0
y_31_NP_BZ 0
y_31_NP_AZ 0
y_31_NP_LL 0
y_31_GP_BZ 0
y_31_GP_AZ 0
y_31_GP_LL 0
y_31_BZ_AZ 0
y_31_BZ_LL 0
y_31_AZ_LL 0
w_31_NP 0
w_31_GP 0
w_31_BZ 0
w_31_AZ 0
w_31_LL 0
y_32_NP_GP 0
y_32_NP_BZ 0
y_32_NP_AZ 0
y_32_NP_LL 0
y_32_GP_BZ 0
y_32_GP_AZ 0
y_32_GP_LL 0
y_32_BZ_AZ 0
y_32_BZ_LL 0
y_32_AZ_LL 0
w_32_NP 0
w_32_GP 0
w_32_BZ 0
w_32_AZ 0
w_32_LL 0
y_33_NP_GP 0
y_33_NP_BZ 0
y_33_NP_AZ 0
y_33_NP_LL 0
y_33_GP_BZ 0
y_33_GP_AZ 0
y_33_GP_LL 0
y_33_BZ_AZ 0
y_33_BZ_LL 0
y_33_AZ_LL 0
w_33_NP 0
w_33_GP 0
w_33_BZ 0
w_33_AZ 0
w_33_LL 0
y_34_NP_GP 0
y_34_NP_BZ 0
y_34_NP_AZ 0
y_34_NP_LL 0
y_34_GP_BZ 0
y_34_GP_AZ 0
y_34_GP_LL 0
y_34_BZ_AZ 0
y_34_BZ_LL 0
y_34_AZ_LL 0
w_34_NP 0
w_34_GP 0
w_34_BZ 0
w_34_AZ 0
w_34_LL 0
y_35_NP_GP 0
y_35_NP_BZ 0
y_35_NP_AZ 0
y_35_NP_LL 0
y_35_GP_BZ 0
y_35_GP_AZ 0
y_35_GP_LL 0
y_35_BZ_AZ 0
y_35_BZ_LL 0
y_35_AZ_LL 0
w_35_NP 0
w_35_GP 0
w_35_BZ 0
w_35_AZ 0
w_35_LL 0
y_36_NP_GP 0
y_36_NP_BZ 0
y_36_NP_AZ 0
y_36_NP_LL 0
y_36_GP_BZ 0
y_36_GP_AZ 0
y_36_GP_LL 0
y_36_BZ_AZ 0
y_36_BZ_LL 0
y_36_AZ_LL 0
w_36_NP 0
w_36_GP 0
w_36_BZ 1
w_36_AZ 0
w_36_LL 0
y_37_NP_GP 0
y_37_NP_BZ 0
y_37_NP_AZ 0
y_37_NP_LL 0
y_37_NP_JA 0
y_37_GP_BZ 0
y_37_GP_AZ 0
y_37_GP_LL 0
y_37_GP_JA 0
y_37_BZ_AZ 0
y_37_BZ_LL 0
y_37_BZ_JA 0
y_37_AZ_LL 0
y_37_AZ_JA 0
y_37_LL_JA 0
w_37_NP 0
w_37_GP 0
w_37_BZ 0
w_37_AZ 0
w_37_LL 0
w_37_JA 0
y_38_NP_GP 0
y_38_NP_BZ 0
y_38_NP_AZ 0
y_38_NP_LL 0
y_38_NP_JA 0
y_38_GP_BZ 0
y_38_GP_AZ 0
y_38_GP_LL 0
y_38_GP_JA 0
y_38_BZ_AZ 0
y_38_BZ_LL 0
y_38_BZ_JA 0
y_38_AZ_LL 0
y_38_AZ_JA 0
y_38_LL_JA 0
w_38_NP 0
w_38_GP 0
w_38_BZ 0
w_38_AZ 0
w_38_LL 0
w_38_JA 0
y_39_GP_BZ 0
y_39_GP_AZ 0
y_39_GP_LL 0
y_39_GP_JA 0
y_39_BZ_AZ 0
y_39_BZ_LL 0
y_39_BZ_JA 0
y_39_AZ_LL 0
y_39_AZ_JA 0
y_39_LL_JA 0
w_39_GP 0
w_39_BZ 0
w_39_AZ 0
w_39_LL 0
w_39_JA 0
y_40_GP_BZ 0
y_40_GP_LL 0
y_40_GP_JA 0
y_40_BZ_LL 0
y_40_BZ_JA 0
y_40_LL_JA 0
w_40_GP 0
w_40_BZ 0
w_40_LL 1
w_40_JA 0
y_41_GP_BZ 0
y_41_GP_JA 0
y_41_BZ_JA 0
w_41_GP 0
w_41_BZ 0
w_41_JA 0
y_42_GP_BZ 0
y_42_GP_JA 1
y_42_GP_FF 0
y_42_BZ_JA 0
y_42_BZ_FF 0
y_42_JA_FF 0
w_42_GP 1
w_42_BZ 0
w_42_JA 1
w_42_FF 0
y_43_GP_BZ 0
y_43_GP_JA 0
y_43_GP_FF 0
y_43_BZ_JA 0
y_43_BZ_FF 0
y_43_JA_FF 0
w_43_GP 0
w_43_BZ 0
w_43_JA 0
w_43_FF 0
y_44_GP_BZ 0
y_44_GP_JA 0
y_44_GP_FF 0
y_44_BZ_JA 0
y_44_BZ_FF 0
y_44_JA_FF 0
w_44_GP 0
w_44_BZ 0
w_44_JA 0
w_44_FF 0
y_45_GP_BZ 0
y_45_GP_JA 0
y_45_GP_FF 0
y_45_BZ_JA 0
y_45_BZ_FF 0
y_45_JA_FF 0
w_45_GP 0
w_45_BZ 0
w_45_JA 0
w_45_FF 0
y_46_GP_BZ 0
y_46_GP_JA 0
y_46_GP_FF 0
y_46_BZ_JA 0
y_46_BZ_FF 0
y_46_JA_FF 0
w_46_GP 0
w_46_BZ 0
w_46_JA 0
w_46_FF 0
y_47_GP_JA 0
y_47_GP_FF 0
y_47_JA_FF 0
w_47_GP 0
w_47_JA 0
w_47_FF 1
y_48_GP_JA 0
y_48_GP_FF 0
y_48_GP_MI 0
y_48_JA_FF 0
y_48_JA_MI 0
y_48_FF_MI 0
w_48_GP 0
w_48_JA 0
w_48_FF 0
w_48_MI 0
y_49_GP_JA 0
y_49_GP_FF 0
y_49_GP_MI 0
y_49_JA_FF 0
y_49_JA_MI 0
y_49_FF_MI 0
w_49_GP 0
w_49_JA 0
w_49_FF 0
w_49_MI 0
y_50_GP_JA 0
y_50_GP_FF 0
y_50_JA_FF 0
w_50_GP 0
w_50_JA 0
w_50_FF 1
y_51_GP_JA 0
y_51_GP_FF 0
y_51_JA_FF 0
w_51_GP 0
w_51_JA 0
w_51_FF 0
y_52_GP_JA 0
w_52_GP 0
w_52_JA 0
FairWiggle 1.7692307692307692e+00
x_1_NP_GP 1
x_2_NP_GP 1
x_3_NP_GP 1
x_4_NP_GP 1
x_3_NP_BZ 1
x_4_NP_BZ 1
x_3_GP_BZ 0
x_4_GP_BZ 0
x_5_NP_GP 1
x_5_NP_BZ 1
x_4_NP_CO 1
x_5_NP_CO 1
x_5_GP_BZ 0
x_4_GP_CO 0
x_5_GP_CO 0
x_4_BZ_CO 0
x_5_BZ_CO 0
x_6_NP_GP 1
x_6_NP_BZ 1
x_6_NP_CO 1
x_6_GP_BZ 0
x_6_GP_CO 0
x_6_BZ_CO 0
x_7_NP_GP 1
x_7_NP_BZ 1
x_7_NP_CO 1
x_7_GP_BZ 0
x_7_GP_CO 0
x_7_BZ_CO 0
x_8_NP_GP 1
x_8_NP_BZ 1
x_8_NP_CO 1
x_8_GP_BZ 0
x_8_GP_CO 0
x_8_BZ_CO 0
x_9_NP_GP 1
x_9_NP_BZ 1
x_9_NP_CO 1
x_9_GP_BZ 0
x_9_GP_CO 0
x_9_BZ_CO 0
x_10_NP_GP 1
x_10_NP_BZ 1
x_10_NP_CO 1
x_10_GP_BZ 0
x_10_GP_CO 0
x_10_BZ_CO 1
x_11_NP_GP 1
x_11_NP_BZ 1
x_11_NP_CO 1
x_11_GP_BZ 0
x_11_GP_CO 0
x_11_BZ_CO 1
x_12_NP_GP 1
x_12_NP_BZ 1
x_12_NP_CO 1
x_12_GP_BZ 0
x_12_GP_CO 0
x_12_BZ_CO 1
x_13_NP_GP 1
x_13_NP_BZ 0
x_13_NP_CO 1
x_13_GP_BZ 0
x_13_GP_CO 0
x_13_BZ_CO 1
x_14_NP_GP 1
x_14_NP_BZ 0
x_14_NP_CO 1
x_14_GP_BZ 0
x_14_GP_CO 0
x_14_BZ_CO 1
x_15_NP_GP 0
x_15_NP_BZ 0
x_15_NP_CO 0
x_15_GP_BZ 0
x_15_GP_CO 0
x_15_BZ_CO 1
x_16_NP_GP 0
x_16_NP_BZ 0
x_16_NP_CO 0
x_15_NP_TM 0
x_16_NP_TM 0
x_16_GP_BZ 0
x_16_GP_CO 0
x_15_GP_TM 0
x_16_GP_TM 0
x_16_BZ_CO 1
x_15_BZ_TM 1
x_16_BZ_TM 1
x_15_CO_TM 0
x_16_CO_TM 0
x_17_NP_GP 0
x_17_NP_BZ 0
x_17_NP_CO 0
x_17_GP_BZ 0
x_17_GP_CO 0
x_17_BZ_CO 1
x_18_NP_GP 0
x_18_NP_BZ 0
x_18_NP_CO 0
x_18_GP_BZ 0
x_18_GP_CO 0
x_18_BZ_CO 1
x_19_NP_GP 0
x_19_NP_BZ 0
x_19_NP_CO 0
x_19_GP_BZ 0
x_19_GP_CO 0
x_19_BZ_CO 1
x_20_NP_GP 0
x_20_NP_BZ 0
x_20_GP_BZ 0
x_21_NP_GP 0
x_21_NP_BZ 0
x_21_GP_BZ 0
x_22_NP_GP 0
x_22_NP_BZ 0
x_22_GP_BZ 0
x_23_NP_GP 0
x_23_NP_BZ 0
x_23_GP_BZ 0
x_24_NP_GP 0
x_24_NP_BZ 0
x_24_GP_BZ 0
x_25_NP_GP 0
x_25_NP_BZ 0
x_25_GP_BZ 0
x_26_NP_GP 0
x_26_NP_BZ 0
x_25_NP_AZ 0
x_26_NP_AZ 0
x_26_GP_BZ 0
x_25_GP_AZ 0
x_26_GP_AZ 0
x_25_BZ_AZ 1
x_26_BZ_AZ 1
x_27_NP_GP 0
x_27_NP_BZ 0
x_27_NP_AZ 0
x_27_GP_BZ 0
x_27_GP_AZ 0
x_27_BZ_AZ 1
x_28_NP_GP 0
x_28_NP_BZ 0
x_28_NP_AZ 0
x_27_NP_LL 0
x_28_NP_LL 0
x_28_GP_BZ 0
x_28_GP_AZ 1
x_27_GP_LL 1
x_28_GP_LL 1
x_28_BZ_AZ 1
x_27_BZ_LL 1
x_28_BZ_LL 1
x_27_AZ_LL 1
x_28_AZ_LL 1
x_29_NP_GP 0
x_29_NP_BZ 0
x_29_NP_AZ 0
x_29_NP_LL 0
x_29_GP_BZ 0
x_29_GP_AZ 1
x_29_GP_LL 1
x_29_BZ_AZ 1
x_29_BZ_LL 1
x_29_AZ_LL 1
x_30_NP_GP 0
x_30_NP_BZ 0
x_30_NP_AZ 0
x_30_NP_LL 0
x_30_GP_BZ 0
x_30_GP_AZ 1
x_30_GP_LL 1
x_30_BZ_AZ 1
x_30_BZ_LL 1
x_30_AZ_LL 1
x_31_NP_GP 0
x_31_NP_BZ 0
x_31_NP_AZ 0
x_31_NP_LL 0
x_31_GP_BZ 0
x_31_GP_AZ 1
x_31_GP_LL 1
x_31_BZ_AZ 1
x_31_BZ_LL 1
x_31_AZ_LL 1
x_32_NP_GP 0
x_32_NP_BZ 0
x_32_NP_AZ 0
x_32_NP_LL 0
x_32_GP_BZ 0
x_32_GP_AZ 1
x_32_GP_LL 1
x_32_BZ_AZ 1
x_32_BZ_LL 1
x_32_AZ_LL 1
x_33_NP_GP 0
x_33_NP_BZ 0
x_33_NP_AZ 0
x_33_NP_LL 0
x_33_GP_BZ 0
x_33_GP_AZ 1
x_33_GP_LL 1
x_33_BZ_AZ 1
x_33_BZ_LL 1
x_33_AZ_LL 1
x_34_NP_GP 0
x_34_NP_BZ 0
x_34_NP_AZ 0
x_34_NP_LL 0
x_34_GP_BZ 0
x_34_GP_AZ 1
x_34_GP_LL 1
x_34_BZ_AZ 1
x_34_BZ_LL 1
x_34_AZ_LL 1
x_35_NP_GP 0
x_35_NP_BZ 0
x_35_NP_AZ 0
x_35_NP_LL 0
x_35_GP_BZ 0
x_35_GP_AZ 1
x_35_GP_LL 1
x_35_BZ_AZ 1
x_35_BZ_LL 1
x_35_AZ_LL 1
x_36_NP_GP 0
x_36_NP_BZ 0
x_36_NP_AZ 0
x_36_NP_LL 0
x_36_GP_BZ 0
x_36_GP_AZ 1
x_36_GP_LL 1
x_36_BZ_AZ 1
x_36_BZ_LL 1
x_36_AZ_LL 1
x_37_NP_GP 0
x_37_NP_BZ 0
x_37_NP_AZ 0
x_37_NP_LL 0
x_37_GP_BZ 0
x_37_GP_AZ 1
x_37_GP_LL 1
x_37_BZ_AZ 1
x_37_BZ_LL 1
x_37_AZ_LL 1
x_38_NP_GP 0
x_38_NP_BZ 0
x_38_NP_AZ 0
x_38_NP_LL 0
x_37_NP_JA 0
x_38_NP_JA 0
x_38_GP_BZ 0
x_38_GP_AZ 1
x_38_GP_LL 1
x_37_GP_JA 0
x_38_GP_JA 0
x_38_BZ_AZ 1
x_38_BZ_LL 1
x_37_BZ_JA 1
x_38_BZ_JA 1
x_38_AZ_LL 1
x_37_AZ_JA 0
x_38_AZ_JA 0
x_37_LL_JA 0
x_38_LL_JA 0
x_39_NP_GP 0
x_39_NP_BZ 0
x_39_NP_AZ 0
x_39_NP_LL 0
x_39_NP_JA 0
x_39_GP_BZ 0
x_39_GP_AZ 1
x_39_GP_LL 1
x_39_GP_JA 0
x_39_BZ_AZ 1
x_39_BZ_LL 1
x_39_BZ_JA 1
x_39_AZ_LL 1
x_39_AZ_JA 0
x_39_LL_JA 0
x_40_GP_BZ 0
x_40_GP_AZ 1
x_40_GP_LL 1
x_40_GP_JA 0
x_40_BZ_AZ 1
x_40_BZ_LL 1
x_40_BZ_JA 1
x_40_AZ_LL 1
x_40_AZ_JA 0
x_40_LL_JA 0
x_41_GP_BZ 0
x_41_GP_LL 1
x_41_GP_JA 0
x_41_BZ_LL 1
x_41_BZ_JA 1
x_41_LL_JA 0
x_42_GP_BZ 0
x_42_GP_JA 0
x_42_BZ_JA 1
x_43_GP_BZ 0
x_43_GP_JA 1
x_42_GP_FF 1
x_43_GP_FF 1
x_43_BZ_JA 1
x_42_BZ_FF 1
x_43_BZ_FF 1
x_42_JA_FF 1
x_43_JA_FF 1
x_44_GP_BZ 0
x_44_GP_JA 1
x_44_GP_FF 1
x_44_BZ_JA 1
x_44_BZ_FF 1
x_44_JA_FF 1
x_45_GP_BZ 0
x_45_GP_JA 1
x_45_GP_FF 1
x_45_BZ_JA 1
x_45_BZ_FF 1
x_45_JA_FF 1
x_46_GP_BZ 0
x_46_GP_JA 1
x_46_GP_FF 1
x_46_BZ_JA 1
x_46_BZ_FF 1
x_46_JA_FF 1
x_47_GP_BZ 0
x_47_GP_JA 1
x_47_GP_FF 1
x_47_BZ_JA 1
x_47_BZ_FF 1
x_47_JA_FF 1
x_48_GP_JA 1
x_48_GP_FF 1
x_48_JA_FF 1
x_49_GP_JA 1
x_49_GP_FF 1
x_48_GP_MI 1
x_49_GP_MI 1
x_49_JA_FF 1
x_48_JA_MI 1
x_49_JA_MI 1
x_48_FF_MI 0
x_49_FF_MI 0
x_50_GP_JA 1
x_50_GP_FF 1
x_50_GP_MI 1
x_50_JA_FF 1
x_50_JA_MI 1
x_50_FF_MI 0
x_51_GP_JA 1
x_51_GP_FF 1
x_51_JA_FF 1
x_52_GP_JA 1
x_52_GP_FF 1
x_52_JA_FF 1
x_53_GP_JA 1
b_0 3
x_0_NP_TH 0
b_1 2
delta_0_0 0
x_2_NP_JV 0
b_2 2
delta_1_0 0
x_1_GP_NP 0
x_2_GP_NP 0
x_2_GP_JV 0
delta_1_2 0
b_3 2
delta_2_0 7.6923076923076927e-02
x_3_GP_NP 0
delta_2_2 0
b_4 2
delta_3_0 7.6923076923076927e-02
x_4_GP_NP 0
delta_3_2 0
x_3_BZ_NP 0
x_3_BZ_GP 1
x_4_BZ_NP 0
x_4_BZ_GP 1
delta_3_4 0
b_5 2
delta_4_0 0
x_5_GP_NP 0
delta_4_2 0
x_5_BZ_NP 0
x_5_BZ_GP 1
delta_4_4 0
x_4_CO_NP 0
x_4_CO_GP 1
x_4_CO_BZ 1
x_5_CO_NP 0
x_5_CO_GP 1
x_5_CO_BZ 1
delta_4_5 0
b_6 2
delta_5_0 0
x_6_GP_NP 0
delta_5_2 0
x_6_BZ_NP 0
x_6_BZ_GP 1
delta_5_4 0
x_6_CO_NP 0
x_6_CO_GP 1
x_6_CO_BZ 1
delta_5_5 0
b_7 2
delta_6_0 0
x_7_GP_NP 0
delta_6_2 0
x_7_BZ_NP 0
x_7_BZ_GP 1
delta_6_4 0
x_7_CO_NP 0
x_7_CO_GP 1
x_7_CO_BZ 1
delta_6_5 0
b_8 2
delta_7_0 0
x_8_GP_NP 0
delta_7_2 0
x_8_BZ_NP 0
x_8_BZ_GP 1
delta_7_4 0
x_8_CO_NP 0
x_8_CO_GP 1
x_8_CO_BZ 1
delta_7_5 0
b_9 2
delta_8_0 0
x_9_GP_NP 0
delta_8_2 0
x_9_BZ_NP 0
x_9_BZ_GP 1
delta_8_4 0
x_9_CO_NP 0
x_9_CO_GP 1
x_9_CO_BZ 1
delta_8_5 0
b_10 2
delta_9_0 0
x_10_GP_NP 0
delta_9_2 0
x_10_BZ_NP 0
x_10_BZ_GP 1
delta_9_4 7.6923076923076927e-02
x_10_CO_NP 0
x_10_CO_GP 1
x_10_CO_BZ 0
delta_9_5 0
b_11 2
delta_10_0 0
x_11_GP_NP 0
delta_10_2 0
x_11_BZ_NP 0
x_11_BZ_GP 1
delta_10_4 0
x_11_CO_NP 0
x_11_CO_GP 1
x_11_CO_BZ 0
delta_10_5 0
b_12 2
delta_11_0 0
x_12_GP_NP 0
delta_11_2 0
x_12_BZ_NP 0
x_12_BZ_GP 1
delta_11_4 0
x_12_CO_NP 0
x_12_CO_GP 1
x_12_CO_BZ 0
delta_11_5 0
b_13 2
delta_12_0 0
x_13_GP_NP 0
delta_12_2 0
x_13_BZ_NP 1
x_13_BZ_GP 1
delta_12_4 7.6923076923076927e-02
x_13_CO_NP 0
x_13_CO_GP 1
x_13_CO_BZ 0
delta_12_5 0
b_14 2
delta_13_0 0
x_14_GP_NP 0
delta_13_2 0
x_14_BZ_NP 1
x_14_BZ_GP 1
delta_13_4 0
x_14_CO_NP 0
x_14_CO_GP 1
x_14_CO_BZ 0
delta_13_5 0
x_15_NP_EP 0
b_15 1
delta_14_0 0
x_15_GP_NP 1
x_15_GP_EP 0
delta_14_2 0
x_15_BZ_NP 1
x_15_BZ_GP 1
x_15_BZ_EP 1
delta_14_4 7.6923076923076927e-02
x_15_CO_NP 1
x_15_CO_GP 1
x_15_CO_BZ 0
x_15_CO_EP 0
delta_14_5 0
b_16 1
delta_15_0 0
x_16_GP_NP 1
delta_15_2 0
x_16_BZ_NP 1
x_16_BZ_GP 1
delta_15_4 0
x_16_CO_NP 1
x_16_CO_GP 1
x_16_CO_BZ 0
delta_15_5 0
x_15_TM_NP 1
x_15_TM_GP 1
x_15_TM_BZ 0
x_15_TM_CO 1
x_15_TM_EP 0
x_16_TM_NP 1
x_16_TM_GP 1
x_16_TM_BZ 0
x_16_TM_CO 1
delta_15_6 0
b_17 1
delta_16_0 0
x_17_GP_NP 1
delta_16_2 0
x_17_BZ_NP 1
x_17_BZ_GP 1
delta_16_4 0
x_17_CO_NP 1
x_17_CO_GP 1
x_17_CO_BZ 0
delta_16_5 0
b_18 1
delta_17_0 0
x_18_GP_NP 1
delta_17_2 0
x_18_BZ_NP 1
x_18_BZ_GP 1
delta_17_4 0
x_18_CO_NP 1
x_18_CO_GP 1
x_18_CO_BZ 0
delta_17_5 0
b_19 1
delta_18_0 0
x_19_GP_NP 1
delta_18_2 0
x_19_BZ_NP 1
x_19_BZ_GP 1
delta_18_4 0
x_19_CO_NP 1
x_19_CO_GP 1
x_19_CO_BZ 0
delta_18_5 0
b_20 1
delta_19_0 0
x_20_GP_NP 1
delta_19_2 0
x_20_BZ_NP 1
x_20_BZ_GP 1
delta_19_4 0
b_21 1
delta_20_0 0
x_21_GP_NP 1
delta_20_2 0
x_21_BZ_NP 1
x_21_BZ_GP 1
delta_20_4 0
b_22 1
delta_21_0 0
x_22_GP_NP 1
delta_21_2 0
x_22_BZ_NP 1
x_22_BZ_GP 1
delta_21_4 0
b_23 1
delta_22_0 0
x_23_GP_NP 1
delta_22_2 0
x_23_BZ_NP 1
x_23_BZ_GP 1
delta_22_4 0
b_24 1
delta_23_0 0
x_24_GP_NP 1
delta_23_2 0
x_24_BZ_NP 1
x_24_BZ_GP 1
delta_23_4 0
b_25 1
delta_24_0 0
x_25_GP_NP 1
delta_24_2 0
x_25_BZ_NP 1
x_25_BZ_GP 1
delta_24_4 7.6923076923076927e-02
b_26 1
delta_25_0 0
x_26_GP_NP 1
delta_25_2 0
x_26_BZ_NP 1
x_26_BZ_GP 1
delta_25_4 0
x_25_AZ_NP 1
x_25_AZ_GP 1
x_25_AZ_BZ 0
x_26_AZ_NP 1
x_26_AZ_GP 1
x_26_AZ_BZ 0
delta_25_8 0
b_27 0
delta_26_0 0
x_27_GP_NP 1
delta_26_2 0
x_27_BZ_NP 1
x_27_BZ_GP 1
delta_26_4 0
x_27_AZ_NP 1
x_27_AZ_GP 1
x_27_AZ_BZ 0
delta_26_8 0
b_28 0
delta_27_0 0
x_28_GP_NP 1
delta_27_2 7.6923076923076927e-02
x_28_BZ_NP 1
x_28_BZ_GP 1
delta_27_4 0
x_28_AZ_NP 1
x_28_AZ_GP 0
x_28_AZ_BZ 0
delta_27_8 0
x_27_LL_NP 1
x_27_LL_GP 0
x_27_LL_BZ 0
x_27_LL_AZ 0
x_28_LL_NP 1
x_28_LL_GP 0
x_28_LL_BZ 0
x_28_LL_AZ 0
delta_27_9 0
b_29 0
delta_28_0 0
x_29_GP_NP 1
delta_28_2 0
x_29_BZ_NP 1
x_29_BZ_GP 1
delta_28_4 0
x_29_AZ_NP 1
x_29_AZ_GP 0
x_29_AZ_BZ 0
delta_28_8 0
x_29_LL_NP 1
x_29_LL_GP 0
x_29_LL_BZ 0
x_29_LL_AZ 0
delta_28_9 0
b_30 0
delta_29_0 0
x_30_GP_NP 1
delta_29_2 0
x_30_BZ_NP 1
x_30_BZ_GP 1
delta_29_4 0
x_30_AZ_NP 1
x_30_AZ_GP 0
x_30_AZ_BZ 0
delta_29_8 0
x_30_LL_NP 1
x_30_LL_GP 0
x_30_LL_BZ 0
x_30_LL_AZ 0
delta_29_9 0
b_31 0
delta_30_0 0
x_31_GP_NP 1
delta_30_2 0
x_31_BZ_NP 1
x_31_BZ_GP 1
delta_30_4 0
x_31_AZ_NP 1
x_31_AZ_GP 0
x_31_AZ_BZ 0
delta_30_8 0
x_31_LL_NP 1
x_31_LL_GP 0
x_31_LL_BZ 0
x_31_LL_AZ 0
delta_30_9 0
b_32 0
delta_31_0 0
x_32_GP_NP 1
delta_31_2 0
x_32_BZ_NP 1
x_32_BZ_GP 1
delta_31_4 0
x_32_AZ_NP 1
x_32_AZ_GP 0
x_32_AZ_BZ 0
delta_31_8 0
x_32_LL_NP 1
x_32_LL_GP 0
x_32_LL_BZ 0
x_32_LL_AZ 0
delta_31_9 0
b_33 0
delta_32_0 0
x_33_GP_NP 1
delta_32_2 0
x_33_BZ_NP 1
x_33_BZ_GP 1
delta_32_4 0
x_33_AZ_NP 1
x_33_AZ_GP 0
x_33_AZ_BZ 0
delta_32_8 0
x_33_LL_NP 1
x_33_LL_GP 0
x_33_LL_BZ 0
x_33_LL_AZ 0
delta_32_9 0
b_34 0
delta_33_0 0
x_34_GP_NP 1
delta_33_2 0
x_34_BZ_NP 1
x_34_BZ_GP 1
delta_33_4 0
x_34_AZ_NP 1
x_34_AZ_GP 0
x_34_AZ_BZ 0
delta_33_8 0
x_34_LL_NP 1
x_34_LL_GP 0
x_34_LL_BZ 0
x_34_LL_AZ 0
delta_33_9 0
b_35 0
delta_34_0 0
x_35_GP_NP 1
delta_34_2 0
x_35_BZ_NP 1
x_35_BZ_GP 1
delta_34_4 0
x_35_AZ_NP 1
x_35_AZ_GP 0
x_35_AZ_BZ 0
delta_34_8 0
x_35_LL_NP 1
x_35_LL_GP 0
x_35_LL_BZ 0
x_35_LL_AZ 0
delta_34_9 0
b_36 0
delta_35_0 0
x_36_GP_NP 1
delta_35_2 0
x_36_BZ_NP 1
x_36_BZ_GP 1
delta_35_4 0
x_36_AZ_NP 1
x_36_AZ_GP 0
x_36_AZ_BZ 0
delta_35_8 0
x_36_LL_NP 1
x_36_LL_GP 0
x_36_LL_BZ 0
x_36_LL_AZ 0
delta_35_9 0
b_37 0
delta_36_0 0
x_37_GP_NP 1
delta_36_2 0
x_37_BZ_NP 1
x_37_BZ_GP 1
delta_36_4 7.6923076923076927e-02
x_37_AZ_NP 1
x_37_AZ_GP 0
x_37_AZ_BZ 0
delta_36_8 0
x_37_LL_NP 1
x_37_LL_GP 0
x_37_LL_BZ 0
x_37_LL_AZ 0
delta_36_9 0
b_38 0
delta_37_0 0
x_38_GP_NP 1
delta_37_2 0
x_38_BZ_NP 1
x_38_BZ_GP 1
delta_37_4 0
x_38_AZ_NP 1
x_38_AZ_GP 0
x_38_AZ_BZ 0
delta_37_8 0
x_38_LL_NP 1
x_38_LL_GP 0
x_38_LL_BZ 0
x_38_LL_AZ 0
delta_37_9 0
x_37_JA_NP 1
x_37_JA_GP 1
x_37_JA_BZ 0
x_37_JA_AZ 1
x_37_JA_LL 1
x_38_JA_NP 1
x_38_JA_GP 1
x_38_JA_BZ 0
x_38_JA_AZ 1
x_38_JA_LL 1
delta_37_10 0
b_39 0
delta_38_0 0
x_39_GP_NP 1
delta_38_2 0
x_39_BZ_NP 1
x_39_BZ_GP 1
delta_38_4 0
x_39_AZ_NP 1
x_39_AZ_GP 0
x_39_AZ_BZ 0
delta_38_8 0
x_39_LL_NP 1
x_39_LL_GP 0
x_39_LL_BZ 0
x_39_LL_AZ 0
delta_38_9 0
x_39_JA_NP 1
x_39_JA_GP 1
x_39_JA_BZ 0
x_39_JA_AZ 1
x_39_JA_LL 1
delta_38_10 0
b_40 1
delta_39_2 0
x_40_BZ_GP 1
delta_39_4 0
x_40_AZ_GP 0
x_40_AZ_BZ 0
delta_39_8 0
x_40_LL_GP 0
x_40_LL_BZ 0
x_40_LL_AZ 0
delta_39_9 0
x_40_JA_GP 1
x_40_JA_BZ 0
x_40_JA_AZ 1
x_40_JA_LL 1
delta_39_10 0
b_41 2
delta_40_2 0
x_41_BZ_GP 1
delta_40_4 0
x_41_LL_GP 0
x_41_LL_BZ 0
delta_40_9 7.6923076923076927e-02
x_41_JA_LL 1
x_41_JA_GP 1
x_41_JA_BZ 0
delta_40_10 0
b_42 2
delta_41_2 0
x_42_BZ_GP 1
delta_41_4 0
x_42_JA_GP 1
x_42_JA_BZ 0
delta_41_10 0
b_43 2
delta_42_2 7.6923076923076927e-02
x_43_BZ_GP 1
delta_42_4 0
x_43_JA_GP 0
x_43_JA_BZ 0
delta_42_10 0
x_42_FF_GP 0
x_42_FF_JA 0
x_42_FF_BZ 0
x_43_FF_GP 0
x_43_FF_JA 0
x_43_FF_BZ 0
delta_42_11 0
b_44 2
delta_43_2 0
x_44_BZ_GP 1
delta_43_4 0
x_44_JA_GP 0
x_44_JA_BZ 0
delta_43_10 0
x_44_FF_GP 0
x_44_FF_JA 0
x_44_FF_BZ 0
delta_43_11 0
b_45 2
delta_44_2 0
x_45_BZ_GP 1
delta_44_4 0
x_45_JA_GP 0
x_45_JA_BZ 0
delta_44_10 0
x_45_FF_GP 0
x_45_FF_JA 0
x_45_FF_BZ 0
delta_44_11 0
b_46 2
delta_45_2 0
x_46_BZ_GP 1
delta_45_4 0
x_46_JA_GP 0
x_46_JA_BZ 0
delta_45_10 0
x_46_FF_GP 0
x_46_FF_JA 0
x_46_FF_BZ 0
delta_45_11 0
b_47 2
delta_46_2 0
x_47_BZ_GP 1
delta_46_4 0
x_47_JA_GP 0
x_47_JA_BZ 0
delta_46_10 0
x_47_FF_GP 0
x_47_FF_JA 0
x_47_FF_BZ 0
delta_46_11 0
b_48 1
delta_47_2 0
x_48_JA_GP 0
delta_47_10 0
x_48_FF_GP 0
x_48_FF_JA 0
delta_47_11 0
b_49 1
delta_48_2 0
x_49_JA_GP 0
delta_48_10 0
x_49_FF_GP 0
x_49_FF_JA 0
delta_48_11 0
x_48_MI_FF 1
x_48_MI_GP 0
x_48_MI_JA 0
x_49_MI_FF 1
x_49_MI_GP 0
x_49_MI_JA 0
delta_48_12 0
b_50 1
delta_49_2 0
x_50_JA_GP 0
delta_49_10 0
x_50_FF_GP 0
x_50_FF_JA 0
delta_49_11 0
x_50_MI_FF 1
x_50_MI_GP 0
x_50_MI_JA 0
delta_49_12 0
b_51 2
delta_50_2 0
x_51_JA_GP 0
delta_50_10 0
x_51_FF_GP 0
x_51_FF_JA 0
delta_50_11 7.6923076923076927e-02
b_52 2
delta_51_2 0
x_52_JA_GP 0
delta_51_10 0
x_52_FF_GP 0
x_52_FF_JA 0
delta_51_11 0
b_53 3
delta_52_2 0
x_53_JA_GP 0
delta_52_10 0
x_0_TH_NP 1
x_2_JV_NP 1
x_2_JV_GP 1
x_15_EP_NP 1
x_15_EP_GP 1
x_15_EP_BZ 0
x_15_EP_CO 1
x_15_EP_TM 1
